c cksystemsgroup.github.io/unicorn
c CNF contains a total of 493 clauses.
c CNF contains a total of 118 variables.
c CNF clauses cover 1 bad states.
c Variable name mapping (17 names):
c   1: input[bit=0]
c   2: input[bit=0]
c   5: input[bit=1]
c   7: input[bit=1]
c   12: input[bit=2]
c   17: input[bit=2]
c   23: input[bit=3]
c   31: input[bit=3]
c   37: input[bit=4]
c   48: input[bit=4]
c   53: input[bit=5]
c   67: input[bit=5]
c   72: input[bit=6]
c   89: input[bit=6]
c   94: input[bit=7]
c   114: input[bit=7]
c   118: ?
p cnf 118 493
-1 -2 3 0
1 -3 0
2 -3 0
-3 -4 0
3 4 0
-5 -2 6 0
5 -6 0
2 -6 0
-1 -7 8 0
1 -8 0
7 -8 0
-9 0
6 8 9 -10 0
6 8 -9 10 0
6 -8 9 10 0
6 -8 -9 -10 0
-6 8 9 10 0
-6 8 -9 -10 0
-6 -8 9 -10 0
-6 -8 -9 10 0
-4 -10 11 0
4 -11 0
10 -11 0
-12 -2 13 0
12 -13 0
2 -13 0
-5 -7 14 0
5 -14 0
7 -14 0
6 8 -15 0
6 9 -15 0
-8 -9 15 0
8 9 -15 0
-6 -9 15 0
-6 -8 15 0
13 14 15 -16 0
13 14 -15 16 0
13 -14 15 16 0
13 -14 -15 -16 0
-13 14 15 16 0
-13 14 -15 -16 0
-13 -14 15 -16 0
-13 -14 -15 16 0
-1 -17 18 0
1 -18 0
17 -18 0
-19 0
16 18 19 -20 0
16 18 -19 20 0
16 -18 19 20 0
16 -18 -19 -20 0
-16 18 19 20 0
-16 18 -19 -20 0
-16 -18 19 -20 0
-16 -18 -19 20 0
-20 -21 0
20 21 0
-11 -21 22 0
11 -22 0
21 -22 0
-23 -2 24 0
23 -24 0
2 -24 0
-12 -7 25 0
12 -25 0
7 -25 0
13 14 -26 0
13 15 -26 0
-14 -15 26 0
14 15 -26 0
-13 -15 26 0
-13 -14 26 0
24 25 26 -27 0
24 25 -26 27 0
24 -25 26 27 0
24 -25 -26 -27 0
-24 25 26 27 0
-24 25 -26 -27 0
-24 -25 26 -27 0
-24 -25 -26 27 0
-5 -17 28 0
5 -28 0
17 -28 0
16 18 -29 0
16 19 -29 0
-18 -19 29 0
18 19 -29 0
-16 -19 29 0
-16 -18 29 0
27 28 29 -30 0
27 28 -29 30 0
27 -28 29 30 0
27 -28 -29 -30 0
-27 28 29 30 0
-27 28 -29 -30 0
-27 -28 29 -30 0
-27 -28 -29 30 0
-1 -31 32 0
1 -32 0
31 -32 0
-33 0
30 32 33 -34 0
30 32 -33 34 0
30 -32 33 34 0
30 -32 -33 -34 0
-30 32 33 34 0
-30 32 -33 -34 0
-30 -32 33 -34 0
-30 -32 -33 34 0
-34 -35 0
34 35 0
-22 -35 36 0
22 -36 0
35 -36 0
-37 -2 38 0
37 -38 0
2 -38 0
-23 -7 39 0
23 -39 0
7 -39 0
24 25 -40 0
24 26 -40 0
-25 -26 40 0
25 26 -40 0
-24 -26 40 0
-24 -25 40 0
38 39 40 -41 0
38 39 -40 41 0
38 -39 40 41 0
38 -39 -40 -41 0
-38 39 40 41 0
-38 39 -40 -41 0
-38 -39 40 -41 0
-38 -39 -40 41 0
-12 -17 42 0
12 -42 0
17 -42 0
27 28 -43 0
27 29 -43 0
-28 -29 43 0
28 29 -43 0
-27 -29 43 0
-27 -28 43 0
41 42 43 -44 0
41 42 -43 44 0
41 -42 43 44 0
41 -42 -43 -44 0
-41 42 43 44 0
-41 42 -43 -44 0
-41 -42 43 -44 0
-41 -42 -43 44 0
-5 -31 45 0
5 -45 0
31 -45 0
30 32 -46 0
30 33 -46 0
-32 -33 46 0
32 33 -46 0
-30 -33 46 0
-30 -32 46 0
44 45 46 -47 0
44 45 -46 47 0
44 -45 46 47 0
44 -45 -46 -47 0
-44 45 46 47 0
-44 45 -46 -47 0
-44 -45 46 -47 0
-44 -45 -46 47 0
-1 -48 49 0
1 -49 0
48 -49 0
-50 0
47 49 50 -51 0
47 49 -50 51 0
47 -49 50 51 0
47 -49 -50 -51 0
-47 49 50 51 0
-47 49 -50 -51 0
-47 -49 50 -51 0
-47 -49 -50 51 0
-36 -51 52 0
36 -52 0
51 -52 0
-53 -2 54 0
53 -54 0
2 -54 0
-37 -7 55 0
37 -55 0
7 -55 0
38 39 -56 0
38 40 -56 0
-39 -40 56 0
39 40 -56 0
-38 -40 56 0
-38 -39 56 0
54 55 56 -57 0
54 55 -56 57 0
54 -55 56 57 0
54 -55 -56 -57 0
-54 55 56 57 0
-54 55 -56 -57 0
-54 -55 56 -57 0
-54 -55 -56 57 0
-23 -17 58 0
23 -58 0
17 -58 0
41 42 -59 0
41 43 -59 0
-42 -43 59 0
42 43 -59 0
-41 -43 59 0
-41 -42 59 0
57 58 59 -60 0
57 58 -59 60 0
57 -58 59 60 0
57 -58 -59 -60 0
-57 58 59 60 0
-57 58 -59 -60 0
-57 -58 59 -60 0
-57 -58 -59 60 0
-12 -31 61 0
12 -61 0
31 -61 0
44 45 -62 0
44 46 -62 0
-45 -46 62 0
45 46 -62 0
-44 -46 62 0
-44 -45 62 0
60 61 62 -63 0
60 61 -62 63 0
60 -61 62 63 0
60 -61 -62 -63 0
-60 61 62 63 0
-60 61 -62 -63 0
-60 -61 62 -63 0
-60 -61 -62 63 0
-5 -48 64 0
5 -64 0
48 -64 0
47 49 -65 0
47 50 -65 0
-49 -50 65 0
49 50 -65 0
-47 -50 65 0
-47 -49 65 0
63 64 65 -66 0
63 64 -65 66 0
63 -64 65 66 0
63 -64 -65 -66 0
-63 64 65 66 0
-63 64 -65 -66 0
-63 -64 65 -66 0
-63 -64 -65 66 0
-1 -67 68 0
1 -68 0
67 -68 0
-69 0
66 68 69 -70 0
66 68 -69 70 0
66 -68 69 70 0
66 -68 -69 -70 0
-66 68 69 70 0
-66 68 -69 -70 0
-66 -68 69 -70 0
-66 -68 -69 70 0
-52 -70 71 0
52 -71 0
70 -71 0
-72 -2 73 0
72 -73 0
2 -73 0
-53 -7 74 0
53 -74 0
7 -74 0
54 55 -75 0
54 56 -75 0
-55 -56 75 0
55 56 -75 0
-54 -56 75 0
-54 -55 75 0
73 74 75 -76 0
73 74 -75 76 0
73 -74 75 76 0
73 -74 -75 -76 0
-73 74 75 76 0
-73 74 -75 -76 0
-73 -74 75 -76 0
-73 -74 -75 76 0
-37 -17 77 0
37 -77 0
17 -77 0
57 58 -78 0
57 59 -78 0
-58 -59 78 0
58 59 -78 0
-57 -59 78 0
-57 -58 78 0
76 77 78 -79 0
76 77 -78 79 0
76 -77 78 79 0
76 -77 -78 -79 0
-76 77 78 79 0
-76 77 -78 -79 0
-76 -77 78 -79 0
-76 -77 -78 79 0
-23 -31 80 0
23 -80 0
31 -80 0
60 61 -81 0
60 62 -81 0
-61 -62 81 0
61 62 -81 0
-60 -62 81 0
-60 -61 81 0
79 80 81 -82 0
79 80 -81 82 0
79 -80 81 82 0
79 -80 -81 -82 0
-79 80 81 82 0
-79 80 -81 -82 0
-79 -80 81 -82 0
-79 -80 -81 82 0
-12 -48 83 0
12 -83 0
48 -83 0
63 64 -84 0
63 65 -84 0
-64 -65 84 0
64 65 -84 0
-63 -65 84 0
-63 -64 84 0
82 83 84 -85 0
82 83 -84 85 0
82 -83 84 85 0
82 -83 -84 -85 0
-82 83 84 85 0
-82 83 -84 -85 0
-82 -83 84 -85 0
-82 -83 -84 85 0
-5 -67 86 0
5 -86 0
67 -86 0
66 68 -87 0
66 69 -87 0
-68 -69 87 0
68 69 -87 0
-66 -69 87 0
-66 -68 87 0
85 86 87 -88 0
85 86 -87 88 0
85 -86 87 88 0
85 -86 -87 -88 0
-85 86 87 88 0
-85 86 -87 -88 0
-85 -86 87 -88 0
-85 -86 -87 88 0
-1 -89 90 0
1 -90 0
89 -90 0
-91 0
88 90 91 -92 0
88 90 -91 92 0
88 -90 91 92 0
88 -90 -91 -92 0
-88 90 91 92 0
-88 90 -91 -92 0
-88 -90 91 -92 0
-88 -90 -91 92 0
-71 -92 93 0
71 -93 0
92 -93 0
-94 -2 95 0
94 -95 0
2 -95 0
-72 -7 96 0
72 -96 0
7 -96 0
73 74 -97 0
73 75 -97 0
-74 -75 97 0
74 75 -97 0
-73 -75 97 0
-73 -74 97 0
95 96 97 -98 0
95 96 -97 98 0
95 -96 97 98 0
95 -96 -97 -98 0
-95 96 97 98 0
-95 96 -97 -98 0
-95 -96 97 -98 0
-95 -96 -97 98 0
-53 -17 99 0
53 -99 0
17 -99 0
76 77 -100 0
76 78 -100 0
-77 -78 100 0
77 78 -100 0
-76 -78 100 0
-76 -77 100 0
98 99 100 -101 0
98 99 -100 101 0
98 -99 100 101 0
98 -99 -100 -101 0
-98 99 100 101 0
-98 99 -100 -101 0
-98 -99 100 -101 0
-98 -99 -100 101 0
-37 -31 102 0
37 -102 0
31 -102 0
79 80 -103 0
79 81 -103 0
-80 -81 103 0
80 81 -103 0
-79 -81 103 0
-79 -80 103 0
101 102 103 -104 0
101 102 -103 104 0
101 -102 103 104 0
101 -102 -103 -104 0
-101 102 103 104 0
-101 102 -103 -104 0
-101 -102 103 -104 0
-101 -102 -103 104 0
-23 -48 105 0
23 -105 0
48 -105 0
82 83 -106 0
82 84 -106 0
-83 -84 106 0
83 84 -106 0
-82 -84 106 0
-82 -83 106 0
104 105 106 -107 0
104 105 -106 107 0
104 -105 106 107 0
104 -105 -106 -107 0
-104 105 106 107 0
-104 105 -106 -107 0
-104 -105 106 -107 0
-104 -105 -106 107 0
-12 -67 108 0
12 -108 0
67 -108 0
85 86 -109 0
85 87 -109 0
-86 -87 109 0
86 87 -109 0
-85 -87 109 0
-85 -86 109 0
107 108 109 -110 0
107 108 -109 110 0
107 -108 109 110 0
107 -108 -109 -110 0
-107 108 109 110 0
-107 108 -109 -110 0
-107 -108 109 -110 0
-107 -108 -109 110 0
-5 -89 111 0
5 -111 0
89 -111 0
88 90 -112 0
88 91 -112 0
-90 -91 112 0
90 91 -112 0
-88 -91 112 0
-88 -90 112 0
110 111 112 -113 0
110 111 -112 113 0
110 -111 112 113 0
110 -111 -112 -113 0
-110 111 112 113 0
-110 111 -112 -113 0
-110 -111 112 -113 0
-110 -111 -112 113 0
-1 -114 115 0
1 -115 0
114 -115 0
-116 0
113 115 116 -117 0
113 115 -116 117 0
113 -115 116 117 0
113 -115 -116 -117 0
-113 115 116 117 0
-113 115 -116 -117 0
-113 -115 116 -117 0
-113 -115 -116 117 0
-93 -117 118 0
93 -118 0
117 -118 0
118 0
